50
1000
696
689
682
632
630
607
585
580
578
573
536
513
511
492
481
427
425
423
417
412
411
411
395
376
365
361
361
357
355
354
352
345
339
327
324
316
310
308
304
290
287
265
264
263
257
256
232
225
220
209
